130 6649
1 124 64 69 86 88 26 7 97 70 63 68 48 25 119 111 123 101 82 57 9 56 65 52 75 74 99 73 92 87 12 81 103 77 36 84 32 113 98 110 89 94 15 29 24 95 116 79 38 106 58 49 72 91 53 120 60 51 42 44 93 46 18 8 108 114 126 21 33 22 37 23 47 40 122 55 6 102 10 14 96 67 13 121 78 66 85 125 90 59 30 83 3 117 112 115 28 62 105 128 16 45 5 11 76 109 61 129 127 107 104 43 19 27 100 31 34 17 54 35 4 20 80 118 2 50 130 71 39 41 
